param n := 25;
param s := 3;
param t := 1;
set A :=
2 4 
2 6 
2 17 
3 7 
3 8 
4 14 
5 23 
6 9 
6 11 
6 14 
6 17 
7 9 
7 13 
8 10 
8 16 
8 20 
8 24 
9 12 
10 14 
10 24 
10 25 
11 8 
11 14 
11 16 
12 4 
12 11 
12 19 
13 1 
13 2 
13 6 
13 7 
14 2 
14 20 
14 22 
15 11 
15 12 
15 23 
15 24 
16 15 
17 1 
17 5 
17 10 
17 18 
17 24 
17 25 
18 5 
18 9 
18 16 
19 2 
19 4 
19 16 
19 21 
19 23 
19 24 
20 14 
20 24 
21 4 
21 15 
21 24 
22 2 
22 19 
23 14 
23 15 
24 12 
24 19 
24 22 
25 1 
25 4 
25 9 
25 10 
25 13 
25 21 
;
param: capacity:=
2 4 6.2 
2 6 4.1 
2 17 9.0 
3 7 5.5 
3 8 5.7 
4 14 8.1 
5 23 7.7 
6 9 5.1 
6 11 9.0 
6 14 7.3 
6 17 9.8 
7 9 5.7 
7 13 5.8 
8 10 8.9 
8 16 8.4 
8 20 7.5 
8 24 8.9 
9 12 6.9 
10 14 4.9 
10 24 7.5 
10 25 9.8 
11 8 3.8 
11 14 5.2 
11 16 3.3 
12 4 3.7 
12 11 5.0 
12 19 8.4 
13 1 6.6 
13 2 6.1 
13 6 9.6 
13 7 6.5 
14 2 3.8 
14 20 3.1 
14 22 6.1 
15 11 7.7 
15 12 7.9 
15 23 9.4 
15 24 3.1 
16 15 7.3 
17 1 3.6 
17 5 7.3 
17 10 9.6 
17 18 9.2 
17 24 7.4 
17 25 8.1 
18 5 9.8 
18 9 8.9 
18 16 8.9 
19 2 9.9 
19 4 9.9 
19 16 7.5 
19 21 8.2 
19 23 3.8 
19 24 4.2 
20 14 5.9 
20 24 4.8 
21 4 7.8 
21 15 4.6 
21 24 9.3 
22 2 3.3 
22 19 7.6 
23 14 9.9 
23 15 3.6 
24 12 8.7 
24 19 4.2 
24 22 9.4 
25 1 8.2 
25 4 3.8 
25 9 4.1 
25 10 3.8 
25 13 5.7 
25 21 6.7 
;
param: cost:=
2 4 3.2 
2 6 3.9 
2 17 2.4 
3 7 8.8 
3 8 1.7 
4 14 9.0 
5 23 5.5 
6 9 3.1 
6 11 6.9 
6 14 9.0 
6 17 9.0 
7 9 8.9 
7 13 2.9 
8 10 6.9 
8 16 4.3 
8 20 5.1 
8 24 4.8 
9 12 8.5 
10 14 3.9 
10 24 5.2 
10 25 3.9 
11 8 2.2 
11 14 7.0 
11 16 8.5 
12 4 3.1 
12 11 3.2 
12 19 6.6 
13 1 2.4 
13 2 2.1 
13 6 6.6 
13 7 4.9 
14 2 9.0 
14 20 1.7 
14 22 3.3 
15 11 5.2 
15 12 3.1 
15 23 7.9 
15 24 1.4 
16 15 5.9 
17 1 1.9 
17 5 5.5 
17 10 1.8 
17 18 1.8 
17 24 8.0 
17 25 3.7 
18 5 4.0 
18 9 3.4 
18 16 4.0 
19 2 5.0 
19 4 7.1 
19 16 6.8 
19 21 1.1 
19 23 6.5 
19 24 5.6 
20 14 3.8 
20 24 3.0 
21 4 1.3 
21 15 5.2 
21 24 5.2 
22 2 5.3 
22 19 2.3 
23 14 6.0 
23 15 8.7 
24 12 6.2 
24 19 5.3 
24 22 6.3 
25 1 4.0 
25 4 1.8 
25 9 4.1 
25 10 6.6 
25 13 10.0 
25 21 4.1 
;